c Result of efficient AIG-to-CNF conversion using package CNF
p cnf 275 1103
-2 3 72 182 187 0
-2 -3 -72 182 187 0
2 -182 0
2 3 -72 0
2 -187 0
2 -3 72 0
3 4 -69 0
3 -4 69 0
-3 -4 -69 0
-3 4 69 0
-4 5 6 0
-4 6 39 0
-4 5 39 0
4 -5 -39 0
4 -6 -39 0
4 -5 -6 0
-5 212 244 0
5 -212 0
5 -244 0
-6 -7 -8 0
-6 7 8 0
6 7 -8 0
6 -7 8 0
7 212 -244 0
7 -212 244 0
-7 -212 -244 0
-7 212 244 0
8 -213 -245 0
8 -245 -9 0
8 -213 -9 0
-8 213 9 0
-8 245 9 0
-8 213 245 0
9 -214 -246 0
9 -246 -10 0
9 -214 -10 0
-9 214 10 0
-9 246 10 0
-9 214 246 0
10 -215 -247 0
10 -247 -11 0
10 -215 -11 0
-10 215 11 0
-10 247 11 0
-10 215 247 0
11 -216 -248 0
11 -248 -12 0
11 -216 -12 0
-11 216 12 0
-11 248 12 0
-11 216 248 0
12 -217 -249 0
12 -249 -13 0
12 -217 -13 0
-12 217 13 0
-12 249 13 0
-12 217 249 0
13 -218 -250 0
13 -250 -14 0
13 -218 -14 0
-13 218 14 0
-13 250 14 0
-13 218 250 0
14 -219 -251 0
14 -251 -15 0
14 -219 -15 0
-14 219 15 0
-14 251 15 0
-14 219 251 0
15 -220 -252 0
15 -252 -16 0
15 -220 -16 0
-15 220 16 0
-15 252 16 0
-15 220 252 0
16 -221 -253 0
16 -253 -17 0
16 -221 -17 0
-16 221 17 0
-16 253 17 0
-16 221 253 0
17 -222 -254 0
17 -254 -18 0
17 -222 -18 0
-17 222 18 0
-17 254 18 0
-17 222 254 0
18 -223 -255 0
18 -255 -19 0
18 -223 -19 0
-18 223 19 0
-18 255 19 0
-18 223 255 0
19 -224 -256 0
19 -256 -20 0
19 -224 -20 0
-19 224 20 0
-19 256 20 0
-19 224 256 0
20 -225 -257 0
20 -257 -21 0
20 -225 -21 0
-20 225 21 0
-20 257 21 0
-20 225 257 0
21 -226 -258 0
21 -258 -22 0
21 -226 -22 0
-21 226 22 0
-21 258 22 0
-21 226 258 0
22 -227 -259 0
22 -259 -23 0
22 -227 -23 0
-22 227 23 0
-22 259 23 0
-22 227 259 0
23 -228 -260 0
23 -260 -24 0
23 -228 -24 0
-23 228 24 0
-23 260 24 0
-23 228 260 0
24 -229 -261 0
24 -261 -25 0
24 -229 -25 0
-24 229 25 0
-24 261 25 0
-24 229 261 0
25 -230 -262 0
25 -262 -26 0
25 -230 -26 0
-25 230 26 0
-25 262 26 0
-25 230 262 0
26 -231 -263 0
26 -263 -27 0
26 -231 -27 0
-26 231 27 0
-26 263 27 0
-26 231 263 0
27 -232 -264 0
27 -264 -28 0
27 -232 -28 0
-27 232 28 0
-27 264 28 0
-27 232 264 0
28 -233 -265 0
28 -265 -29 0
28 -233 -29 0
-28 233 29 0
-28 265 29 0
-28 233 265 0
29 -234 -266 0
29 -266 -30 0
29 -234 -30 0
-29 234 30 0
-29 266 30 0
-29 234 266 0
30 -235 -267 0
30 -267 -31 0
30 -235 -31 0
-30 235 31 0
-30 267 31 0
-30 235 267 0
31 -236 -268 0
31 -268 -32 0
31 -236 -32 0
-31 236 32 0
-31 268 32 0
-31 236 268 0
32 -237 -269 0
32 -269 -33 0
32 -237 -33 0
-32 237 33 0
-32 269 33 0
-32 237 269 0
33 -238 -270 0
33 -270 -34 0
33 -238 -34 0
-33 238 34 0
-33 270 34 0
-33 238 270 0
34 -239 -271 0
34 -271 -35 0
34 -239 -35 0
-34 239 35 0
-34 271 35 0
-34 239 271 0
35 -240 -272 0
35 -272 -36 0
35 -240 -36 0
-35 240 36 0
-35 272 36 0
-35 240 272 0
36 -241 -37 0
36 -273 -37 0
-36 37 0
-36 241 273 0
-37 242 38 0
-37 274 38 0
37 -38 0
37 -242 -274 0
38 -241 -273 0
-38 241 0
-38 273 0
-39 213 -9 40 0
-39 -213 -245 9 40 0
-39 245 -9 40 0
-39 213 245 9 0
39 -213 -40 0
39 -9 -40 0
39 213 -245 9 0
39 -213 245 9 0
39 -213 -245 -9 0
-40 214 -10 41 0
-40 -214 -246 10 41 0
-40 246 -10 41 0
-40 214 246 10 0
40 -214 -41 0
40 -10 -41 0
40 214 -246 10 0
40 -214 246 10 0
40 -214 -246 -10 0
-41 215 -11 42 0
-41 -215 -247 11 42 0
-41 247 -11 42 0
-41 215 247 11 0
41 -215 -42 0
41 -11 -42 0
41 215 -247 11 0
41 -215 247 11 0
41 -215 -247 -11 0
-42 216 -12 43 0
-42 -216 -248 12 43 0
-42 248 -12 43 0
-42 216 248 12 0
42 -216 -43 0
42 -12 -43 0
42 216 -248 12 0
42 -216 248 12 0
42 -216 -248 -12 0
-43 217 -13 44 0
-43 -217 -249 13 44 0
-43 249 -13 44 0
-43 217 249 13 0
43 -217 -44 0
43 -13 -44 0
43 217 -249 13 0
43 -217 249 13 0
43 -217 -249 -13 0
-44 218 -14 45 0
-44 -218 -250 14 45 0
-44 250 -14 45 0
-44 218 250 14 0
44 -218 -45 0
44 -14 -45 0
44 218 -250 14 0
44 -218 250 14 0
44 -218 -250 -14 0
-45 219 -15 46 0
-45 -219 -251 15 46 0
-45 251 -15 46 0
-45 219 251 15 0
45 -219 -46 0
45 -15 -46 0
45 219 -251 15 0
45 -219 251 15 0
45 -219 -251 -15 0
-46 220 -16 47 0
-46 -220 -252 16 47 0
-46 252 -16 47 0
-46 220 252 16 0
46 -220 -47 0
46 -16 -47 0
46 220 -252 16 0
46 -220 252 16 0
46 -220 -252 -16 0
-47 221 -17 48 0
-47 -221 -253 17 48 0
-47 253 -17 48 0
-47 221 253 17 0
47 -221 -48 0
47 -17 -48 0
47 221 -253 17 0
47 -221 253 17 0
47 -221 -253 -17 0
-48 222 -18 49 0
-48 -222 -254 18 49 0
-48 254 -18 49 0
-48 222 254 18 0
48 -222 -49 0
48 -18 -49 0
48 222 -254 18 0
48 -222 254 18 0
48 -222 -254 -18 0
-49 223 -19 50 0
-49 -223 -255 19 50 0
-49 255 -19 50 0
-49 223 255 19 0
49 -223 -50 0
49 -19 -50 0
49 223 -255 19 0
49 -223 255 19 0
49 -223 -255 -19 0
-50 224 -20 51 0
-50 -224 -256 20 51 0
-50 256 -20 51 0
-50 224 256 20 0
50 -224 -51 0
50 -20 -51 0
50 224 -256 20 0
50 -224 256 20 0
50 -224 -256 -20 0
-51 225 -21 52 0
-51 -225 -257 21 52 0
-51 257 -21 52 0
-51 225 257 21 0
51 -225 -52 0
51 -21 -52 0
51 225 -257 21 0
51 -225 257 21 0
51 -225 -257 -21 0
-52 226 -22 53 0
-52 -226 -258 22 53 0
-52 258 -22 53 0
-52 226 258 22 0
52 -226 -53 0
52 -22 -53 0
52 226 -258 22 0
52 -226 258 22 0
52 -226 -258 -22 0
-53 227 -23 54 0
-53 -227 -259 23 54 0
-53 259 -23 54 0
-53 227 259 23 0
53 -227 -54 0
53 -23 -54 0
53 227 -259 23 0
53 -227 259 23 0
53 -227 -259 -23 0
-54 228 -24 55 0
-54 -228 -260 24 55 0
-54 260 -24 55 0
-54 228 260 24 0
54 -228 -55 0
54 -24 -55 0
54 228 -260 24 0
54 -228 260 24 0
54 -228 -260 -24 0
-55 229 -25 56 0
-55 -229 -261 25 56 0
-55 261 -25 56 0
-55 229 261 25 0
55 -229 -56 0
55 -25 -56 0
55 229 -261 25 0
55 -229 261 25 0
55 -229 -261 -25 0
-56 230 -26 57 0
-56 -230 -262 26 57 0
-56 262 -26 57 0
-56 230 262 26 0
56 -230 -57 0
56 -26 -57 0
56 230 -262 26 0
56 -230 262 26 0
56 -230 -262 -26 0
-57 231 -27 58 0
-57 -231 -263 27 58 0
-57 263 -27 58 0
-57 231 263 27 0
57 -231 -58 0
57 -27 -58 0
57 231 -263 27 0
57 -231 263 27 0
57 -231 -263 -27 0
-58 232 -28 59 0
-58 -232 -264 28 59 0
-58 264 -28 59 0
-58 232 264 28 0
58 -232 -59 0
58 -28 -59 0
58 232 -264 28 0
58 -232 264 28 0
58 -232 -264 -28 0
-59 233 -29 60 0
-59 -233 -265 29 60 0
-59 265 -29 60 0
-59 233 265 29 0
59 -233 -60 0
59 -29 -60 0
59 233 -265 29 0
59 -233 265 29 0
59 -233 -265 -29 0
-60 234 -30 61 0
-60 -234 -266 30 61 0
-60 266 -30 61 0
-60 234 266 30 0
60 -234 -61 0
60 -30 -61 0
60 234 -266 30 0
60 -234 266 30 0
60 -234 -266 -30 0
-61 235 -31 62 0
-61 -235 -267 31 62 0
-61 267 -31 62 0
-61 235 267 31 0
61 -235 -62 0
61 -31 -62 0
61 235 -267 31 0
61 -235 267 31 0
61 -235 -267 -31 0
-62 236 -32 63 0
-62 -236 -268 32 63 0
-62 268 -32 63 0
-62 236 268 32 0
62 -236 -63 0
62 -32 -63 0
62 236 -268 32 0
62 -236 268 32 0
62 -236 -268 -32 0
-63 237 -33 64 0
-63 -237 -269 33 64 0
-63 269 -33 64 0
-63 237 269 33 0
63 -237 -64 0
63 -33 -64 0
63 237 -269 33 0
63 -237 269 33 0
63 -237 -269 -33 0
-64 238 -34 65 0
-64 -238 -270 34 65 0
-64 270 -34 65 0
-64 238 270 34 0
64 -238 -65 0
64 -34 -65 0
64 238 -270 34 0
64 -238 270 34 0
64 -238 -270 -34 0
-65 239 -35 66 0
-65 -239 -271 35 66 0
-65 271 -35 66 0
-65 239 271 35 0
65 -239 -66 0
65 -35 -66 0
65 239 -271 35 0
65 -239 271 35 0
65 -239 -271 -35 0
-66 272 -36 67 0
-66 -240 -272 36 67 0
-66 240 -36 67 0
-66 240 272 36 0
66 -240 -67 0
66 -36 -67 0
66 240 -272 36 0
66 -240 272 36 0
66 -240 -272 -36 0
67 242 -274 -68 0
67 -242 -68 -38 0
67 274 -68 38 0
-67 68 0
-67 242 274 -38 0
-67 -242 -274 38 0
-68 241 273 0
68 -241 0
68 -273 0
69 70 -71 0
69 -70 71 0
-69 -70 -71 0
-69 70 71 0
70 -211 -243 0
-70 211 0
-70 243 0
71 -212 -244 0
71 -244 -8 0
71 -212 -8 0
-71 212 8 0
-71 244 8 0
-71 212 244 0
72 -73 180 0
72 73 -180 0
-72 73 180 0
-72 -73 -180 0
-73 74 105 0
-73 212 74 0
-73 212 105 0
73 -212 -74 0
73 -74 -105 0
73 -212 -105 0
74 75 -104 0
74 -75 104 0
-74 -75 -104 0
-74 75 104 0
-75 245 76 0
-75 213 245 0
75 -245 0
75 -213 -76 0
-76 246 77 0
-76 214 246 0
76 -246 0
76 -214 -77 0
-77 247 78 0
-77 215 247 0
77 -247 0
77 -215 -78 0
-78 248 79 0
-78 216 248 0
78 -248 0
78 -216 -79 0
-79 249 80 0
-79 217 249 0
79 -249 0
79 -217 -80 0
-80 250 81 0
-80 218 250 0
80 -250 0
80 -218 -81 0
-81 251 82 0
-81 219 251 0
81 -251 0
81 -219 -82 0
-82 252 83 0
-82 220 252 0
82 -252 0
82 -220 -83 0
-83 253 84 0
-83 221 253 0
83 -253 0
83 -221 -84 0
-84 254 85 0
-84 222 254 0
84 -254 0
84 -222 -85 0
-85 255 86 0
-85 223 255 0
85 -255 0
85 -223 -86 0
-86 256 87 0
-86 224 256 0
86 -256 0
86 -224 -87 0
-87 257 88 0
-87 225 257 0
87 -257 0
87 -225 -88 0
-88 258 89 0
-88 226 258 0
88 -258 0
88 -226 -89 0
-89 259 90 0
-89 227 259 0
89 -259 0
89 -227 -90 0
-90 260 91 0
-90 228 260 0
90 -260 0
90 -228 -91 0
-91 261 92 0
-91 229 261 0
91 -261 0
91 -229 -92 0
-92 262 93 0
-92 230 262 0
92 -262 0
92 -230 -93 0
-93 263 94 0
-93 231 263 0
93 -263 0
93 -231 -94 0
-94 264 95 0
-94 232 264 0
94 -264 0
94 -232 -95 0
-95 265 96 0
-95 233 265 0
95 -265 0
95 -233 -96 0
-96 266 97 0
-96 234 266 0
96 -266 0
96 -234 -97 0
-97 267 98 0
-97 235 267 0
97 -267 0
97 -235 -98 0
-98 268 99 0
-98 236 268 0
98 -268 0
98 -236 -99 0
-99 269 100 0
-99 237 269 0
99 -269 0
99 -237 -100 0
-100 270 101 0
-100 238 270 0
100 -270 0
100 -238 -101 0
-101 271 102 0
-101 239 271 0
101 -271 0
101 -239 -102 0
-102 272 103 0
-102 240 272 0
102 -272 0
102 -240 -103 0
-103 273 274 0
-103 241 273 0
103 -273 0
103 -241 -274 0
104 -212 244 0
-104 212 0
-104 -244 0
-105 106 108 0
-105 213 106 0
-105 213 108 0
105 -213 -106 0
105 -106 -108 0
105 -213 -108 0
106 76 -107 0
106 -76 107 0
-106 -76 -107 0
-106 76 107 0
107 -213 245 0
-107 213 0
-107 -245 0
-108 109 111 0
-108 214 109 0
-108 214 111 0
108 -214 -109 0
108 -109 -111 0
108 -214 -111 0
109 77 -110 0
109 -77 110 0
-109 -77 -110 0
-109 77 110 0
110 -214 246 0
-110 214 0
-110 -246 0
-111 112 114 0
-111 215 112 0
-111 215 114 0
111 -215 -112 0
111 -112 -114 0
111 -215 -114 0
112 78 -113 0
112 -78 113 0
-112 -78 -113 0
-112 78 113 0
113 -215 247 0
-113 215 0
-113 -247 0
-114 115 117 0
-114 216 115 0
-114 216 117 0
114 -216 -115 0
114 -115 -117 0
114 -216 -117 0
115 79 -116 0
115 -79 116 0
-115 -79 -116 0
-115 79 116 0
116 -216 248 0
-116 216 0
-116 -248 0
-117 118 120 0
-117 217 118 0
-117 217 120 0
117 -217 -118 0
117 -118 -120 0
117 -217 -120 0
118 80 -119 0
118 -80 119 0
-118 -80 -119 0
-118 80 119 0
119 -217 249 0
-119 217 0
-119 -249 0
-120 121 123 0
-120 218 121 0
-120 218 123 0
120 -218 -121 0
120 -121 -123 0
120 -218 -123 0
121 81 -122 0
121 -81 122 0
-121 -81 -122 0
-121 81 122 0
122 -218 250 0
-122 218 0
-122 -250 0
-123 219 124 0
-123 251 -82 124 0
-123 219 82 0
-123 -251 82 124 0
123 -219 -124 0
123 -219 251 82 0
123 -82 -124 0
123 -219 -251 -82 0
-124 125 127 0
-124 220 125 0
-124 220 127 0
124 -220 -125 0
124 -125 -127 0
124 -220 -127 0
125 83 -126 0
125 -83 126 0
-125 -83 -126 0
-125 83 126 0
126 -220 252 0
-126 220 0
-126 -252 0
-127 221 128 0
-127 253 -84 128 0
-127 221 84 0
-127 -253 84 128 0
127 -221 -128 0
127 -221 253 84 0
127 -84 -128 0
127 -221 -253 -84 0
-128 129 131 0
-128 222 129 0
-128 222 131 0
128 -222 -129 0
128 -129 -131 0
128 -222 -131 0
129 85 -130 0
129 -85 130 0
-129 -85 -130 0
-129 85 130 0
130 -222 254 0
-130 222 0
-130 -254 0
-131 132 134 0
-131 223 132 0
-131 223 134 0
131 -223 -132 0
131 -132 -134 0
131 -223 -134 0
132 86 -133 0
132 -86 133 0
-132 -86 -133 0
-132 86 133 0
133 -223 255 0
-133 223 0
-133 -255 0
-134 224 135 0
-134 256 -87 135 0
-134 224 87 0
-134 -256 87 135 0
134 -224 -135 0
134 -224 256 87 0
134 -87 -135 0
134 -224 -256 -87 0
-135 136 138 0
-135 225 136 0
-135 225 138 0
135 -225 -136 0
135 -136 -138 0
135 -225 -138 0
136 88 -137 0
136 -88 137 0
-136 -88 -137 0
-136 88 137 0
137 -225 257 0
-137 225 0
-137 -257 0
-138 139 141 0
-138 226 139 0
-138 226 141 0
138 -226 -139 0
138 -139 -141 0
138 -226 -141 0
139 89 -140 0
139 -89 140 0
-139 -89 -140 0
-139 89 140 0
140 -226 258 0
-140 226 0
-140 -258 0
-141 142 144 0
-141 227 142 0
-141 227 144 0
141 -227 -142 0
141 -142 -144 0
141 -227 -144 0
142 90 -143 0
142 -90 143 0
-142 -90 -143 0
-142 90 143 0
143 -227 259 0
-143 227 0
-143 -259 0
-144 145 147 0
-144 228 145 0
-144 228 147 0
144 -228 -145 0
144 -145 -147 0
144 -228 -147 0
145 91 -146 0
145 -91 146 0
-145 -91 -146 0
-145 91 146 0
146 -228 260 0
-146 228 0
-146 -260 0
-147 148 150 0
-147 229 148 0
-147 229 150 0
147 -229 -148 0
147 -148 -150 0
147 -229 -150 0
148 92 -149 0
148 -92 149 0
-148 -92 -149 0
-148 92 149 0
149 -229 261 0
-149 229 0
-149 -261 0
-150 151 153 0
-150 230 151 0
-150 230 153 0
150 -230 -151 0
150 -151 -153 0
150 -230 -153 0
151 93 -152 0
151 -93 152 0
-151 -93 -152 0
-151 93 152 0
152 -230 262 0
-152 230 0
-152 -262 0
-153 154 156 0
-153 231 154 0
-153 231 156 0
153 -231 -154 0
153 -154 -156 0
153 -231 -156 0
154 94 -155 0
154 -94 155 0
-154 -94 -155 0
-154 94 155 0
155 -231 263 0
-155 231 0
-155 -263 0
-156 157 159 0
-156 232 157 0
-156 232 159 0
156 -232 -157 0
156 -157 -159 0
156 -232 -159 0
157 95 -158 0
157 -95 158 0
-157 -95 -158 0
-157 95 158 0
158 -232 264 0
-158 232 0
-158 -264 0
-159 160 162 0
-159 233 160 0
-159 233 162 0
159 -233 -160 0
159 -160 -162 0
159 -233 -162 0
160 96 -161 0
160 -96 161 0
-160 -96 -161 0
-160 96 161 0
161 -233 265 0
-161 233 0
-161 -265 0
-162 163 165 0
-162 234 163 0
-162 234 165 0
162 -234 -163 0
162 -163 -165 0
162 -234 -165 0
163 97 -164 0
163 -97 164 0
-163 -97 -164 0
-163 97 164 0
164 -234 266 0
-164 234 0
-164 -266 0
-165 166 168 0
-165 235 166 0
-165 235 168 0
165 -235 -166 0
165 -166 -168 0
165 -235 -168 0
166 98 -167 0
166 -98 167 0
-166 -98 -167 0
-166 98 167 0
167 -235 267 0
-167 235 0
-167 -267 0
-168 169 171 0
-168 236 169 0
-168 236 171 0
168 -236 -169 0
168 -169 -171 0
168 -236 -171 0
169 99 -170 0
169 -99 170 0
-169 -99 -170 0
-169 99 170 0
170 -236 268 0
-170 236 0
-170 -268 0
-171 172 174 0
-171 237 172 0
-171 237 174 0
171 -237 -172 0
171 -172 -174 0
171 -237 -174 0
172 100 -173 0
172 -100 173 0
-172 -100 -173 0
-172 100 173 0
173 -237 269 0
-173 237 0
-173 -269 0
-174 238 175 0
-174 270 -101 175 0
-174 238 101 0
-174 -270 101 175 0
174 -238 -175 0
174 -238 270 101 0
174 -101 -175 0
174 -238 -270 -101 0
-175 239 176 0
-175 176 178 0
-175 239 178 0
175 -176 -178 0
175 -239 -176 0
175 -239 -178 0
-176 -102 -177 0
-176 102 177 0
176 102 -177 0
176 -102 177 0
177 -239 271 0
-177 239 0
-177 -271 0
-178 240 179 0
-178 272 -103 179 0
-178 240 103 0
-178 -272 103 179 0
178 -240 -179 0
178 -240 272 103 0
178 -103 -179 0
178 -240 -272 -103 0
-179 241 0
-179 273 -274 0
-179 242 -273 274 0
179 -241 -242 274 0
179 -241 -273 -274 0
179 -241 273 274 0
-180 70 181 0
-180 -70 -181 0
180 -70 181 0
180 70 -181 0
-181 244 75 0
-181 212 244 0
181 -244 0
181 -212 -75 0
182 183 -185 0
182 -183 185 0
-182 -183 -185 0
-182 183 185 0
183 39 -184 0
183 -39 184 0
-183 -39 -184 0
-183 39 184 0
184 212 -8 0
184 -212 -244 8 0
184 244 -8 0
-184 212 8 0
-184 244 8 0
-184 -212 -244 -8 0
185 105 -186 0
185 -105 186 0
-185 -105 -186 0
-185 105 186 0
186 212 -74 0
186 -212 74 0
-186 -212 -74 0
-186 212 74 0
-187 188 193 195 197 0
-187 188 -193 -195 197 0
187 -197 0
187 -193 195 0
187 -188 0
187 193 -195 0
188 189 -191 0
188 -189 191 0
-188 -189 -191 0
-188 189 191 0
189 40 -190 0
189 -40 190 0
-189 -40 -190 0
-189 40 190 0
190 213 -9 0
190 -213 -245 9 0
190 245 -9 0
-190 213 9 0
-190 245 9 0
-190 -213 -245 -9 0
191 108 -192 0
191 -108 192 0
-191 -108 -192 0
-191 108 192 0
192 213 -106 0
192 -213 106 0
-192 -213 -106 0
-192 213 106 0
193 41 -194 0
193 -41 194 0
-193 -41 -194 0
-193 41 194 0
194 214 -10 0
194 -214 -246 10 0
194 246 -10 0
-194 214 10 0
-194 246 10 0
-194 -214 -246 -10 0
195 111 -196 0
195 -111 196 0
-195 -111 -196 0
-195 111 196 0
196 214 -109 0
196 -214 109 0
-196 -214 -109 0
-196 214 109 0
-197 -198 -200 202 0
-197 198 200 202 0
197 -202 0
197 -198 200 0
197 198 -200 0
198 42 -199 0
198 -42 199 0
-198 -42 -199 0
-198 42 199 0
199 215 -11 0
199 -215 -247 11 0
199 247 -11 0
-199 215 11 0
-199 247 11 0
-199 -215 -247 -11 0
200 114 -201 0
200 -114 201 0
-200 -114 -201 0
-200 114 201 0
201 215 -112 0
201 -215 112 0
-201 -215 -112 0
-201 215 112 0
-202 203 205 -207 -209 0
-202 -203 -205 -207 -209 0
-202 203 205 207 209 0
-202 -203 -205 207 209 0
202 203 -205 0
202 -203 205 0
202 207 -209 0
202 -207 209 0
203 43 -204 0
203 -43 204 0
-203 -43 -204 0
-203 43 204 0
204 216 -12 0
204 -216 -248 12 0
204 248 -12 0
-204 216 12 0
-204 248 12 0
-204 -216 -248 -12 0
205 117 -206 0
205 -117 206 0
-205 -117 -206 0
-205 117 206 0
206 216 -115 0
206 -216 115 0
-206 -216 -115 0
-206 216 115 0
207 44 -208 0
207 -44 208 0
-207 -44 -208 0
-207 44 208 0
208 217 -13 0
208 -217 -249 13 0
208 249 -13 0
-208 217 13 0
-208 249 13 0
-208 -217 -249 -13 0
209 120 -210 0
209 -120 210 0
-209 -120 -210 0
-209 120 210 0
210 217 -118 0
210 -217 118 0
-210 -217 -118 0
-210 217 118 0
-275 0
2 0

